# Solution for model count
# Objective value = 9
z#1 0
z#2 0
z#3 1
z#4 0
z#5 0
z#6 1
z#7 1
z#8 1
z#9 0
z#10 0
z#11 0
z#12 0
z#13 0
z#14 1
z#15 1
z#16 0
z#17 1
z#18 0
z#19 0
z#20 1
z#21 1
z#22 0
z#23 0
z#24 0
x#24 0
x#23 0
x#22 0
x#21 1014
x#20 2686
x#19 0
x#18 0
x#17 659
x#16 0
x#15 10
x#14 3921
x#13 0
x#12 0
x#11 0
x#10 0
x#9 0
x#8 303
x#7 1019
x#6 234
x#5 0
x#4 0
x#3 154
x#2 0
x#1 0
